\ LP format - for model browsing. Use MPS format to capture full model detail.
Maximize
  4 x_1 + 10 x_2 + 7 x_3 + 6 x_4 + 10 x_5 + 5 x_6 + 3 x_7 + 6 x_8 + 10 x_9
   + 9 x_10
Subject To
 C_1: 8 x_1 + 5 x_2 + 6 x_3 + 5 x_4 + 8 x_5 + 10 x_6 + 8 x_7 + 2 x_8
   + 3 x_9 + 2 x_10 <= 28
 C_2: 8 x_1 + 5 x_2 + 3 x_3 + 7 x_4 + 4 x_5 + 3 x_6 + 6 x_7 + 10 x_8
   + 2 x_9 + 10 x_10 <= 29
 C_3: x_1 + 7 x_2 + 2 x_3 + 10 x_4 + 3 x_5 + x_6 + 4 x_7 + 7 x_8 + 9 x_9
   + 5 x_10 <= 24
 C_4: 7 x_1 + 6 x_2 + 9 x_3 + 2 x_4 + 2 x_5 + 9 x_6 + 3 x_7 + 9 x_8 + 2 x_9
   + 5 x_10 <= 27
 C_5: 2 x_1 + x_2 + x_3 + 5 x_4 + 7 x_5 + 4 x_6 + 9 x_7 + 4 x_8 + 5 x_9
   + 2 x_10 <= 20
Bounds
Binaries
 x_1 x_2 x_3 x_4 x_5 x_6 x_7 x_8 x_9 x_10
End
